========================================================== 
File name: C:\DEGR\assets\definitions\MSRCPSP_Gen\100_40_64_5_D.def
Creation date: Wed May 03 10:39:28 CEST 2023
Website: http://imopse.ii.pwr.edu.pl/ 
Reference: 
Myszkowski P. B., Skowronski M. E., Olech L., Oslizlo K., 
Hybrid Ant Colony Optimization in solving Multi-Skill Resource-Constrained Project Scheduling Problem, 
Soft Computing, DOI: DOI 10.1007/s00500-014-1455-x 
========================================================== 
General characteristics: 
Tasks: 100
Resources: 40
Precedence relations: 63
Number of skill types: 5
========================================================== 
ResourceID 	 Salary 	 Skills 
1	 	 	96.5	 	 Q1: 0 	  Q0: 3 	 
2	 	 	60.2	 	 Q4: 1 	  Q2: 0 	  Q1: 0 	 
3	 	 	14.3	 	 Q3: 3 	  Q2: 0 	  Q0: 1 	 
4	 	 	31.1	 	 Q4: 1 	  Q3: 3 	 
5	 	 	84.7	 	 Q0: 2 	  Q2: 2 	  Q4: 2 	  Q3: 1 	 
6	 	 	28.8	 	 Q4: 3 	 
7	 	 	53.3	 	 Q1: 1 	  Q2: 2 	  Q4: 0 	  Q3: 2 	 
8	 	 	31.9	 	 Q4: 2 	 
9	 	 	40.9	 	 Q3: 1 	  Q2: 3 	  Q0: 1 	 
10	 	 	30.7	 	 Q2: 3 	  Q0: 1 	  Q3: 0 	  Q4: 1 	 
11	 	 	37.1	 	 Q2: 3 	  Q0: 3 	  Q3: 0 	  Q1: 3 	 
12	 	 	30.3	 	 Q4: 1 	  Q3: 3 	 
13	 	 	62.8	 	 Q3: 1 	  Q4: 3 	 
14	 	 	77.1	 	 Q1: 0 	 
15	 	 	55.6	 	 Q3: 0 	  Q1: 0 	  Q0: 3 	 
16	 	 	63.6	 	 Q1: 2 	  Q2: 1 	  Q0: 1 	  Q4: 3 	 
17	 	 	44.6	 	 Q1: 2 	 
18	 	 	36.0	 	 Q1: 0 	  Q4: 0 	  Q0: 0 	 
19	 	 	77.7	 	 Q1: 0 	 
20	 	 	50.2	 	 Q2: 2 	  Q4: 3 	 
21	 	 	37.3	 	 Q0: 2 	  Q2: 2 	 
22	 	 	51.3	 	 Q0: 0 	  Q1: 2 	  Q2: 0 	 
23	 	 	91.9	 	 Q4: 0 	  Q1: 2 	  Q3: 3 	  Q2: 1 	 
24	 	 	98.0	 	 Q4: 1 	  Q3: 1 	 
25	 	 	91.6	 	 Q1: 2 	 
26	 	 	24.3	 	 Q2: 0 	  Q0: 0 	  Q3: 3 	 
27	 	 	97.1	 	 Q0: 0 	 
28	 	 	72.6	 	 Q3: 3 	  Q4: 2 	  Q0: 0 	  Q1: 0 	 
29	 	 	78.1	 	 Q1: 2 	  Q4: 1 	  Q0: 1 	 
30	 	 	38.6	 	 Q1: 1 	 
31	 	 	66.4	 	 Q4: 0 	 
32	 	 	47.6	 	 Q3: 2 	  Q1: 3 	  Q2: 1 	 
33	 	 	94.6	 	 Q3: 3 	  Q0: 0 	  Q2: 1 	 
34	 	 	80.2	 	 Q2: 3 	  Q4: 3 	  Q0: 0 	 
35	 	 	84.3	 	 Q4: 1 	  Q3: 3 	  Q0: 3 	  Q2: 1 	 
36	 	 	83.0	 	 Q4: 3 	  Q2: 1 	  Q1: 1 	  Q3: 1 	 
37	 	 	12.5	 	 Q2: 3 	  Q3: 2 	  Q1: 0 	  Q4: 1 	 
38	 	 	36.9	 	 Q1: 0 	  Q2: 3 	  Q0: 1 	  Q3: 1 	 
39	 	 	44.0	 	 Q0: 1 	  Q4: 3 	  Q2: 3 	 
40	 	 	39.8	 	 Q0: 2 	  Q1: 1 	 
========================================================== 
TaskID 	 Duration 	 Skill 	 Predecessor IDs 
1	16	Q3:	1
2	35	Q1:	0
3	16	Q1:	2
4	25	Q0:	1
5	27	Q1:	2
6	33	Q3:	1
7	16	Q3:	0	1
8	29	Q3:	3
9	21	Q4:	0
10	29	Q4:	2
11	15	Q0:	3
12	35	Q2:	1
13	28	Q0:	3
14	18	Q3:	0	1
15	24	Q4:	1	12
16	27	Q0:	0
17	20	Q2:	0	1
18	23	Q3:	0
19	10	Q3:	2	11
20	22	Q3:	1
21	26	Q3:	1	17
22	19	Q4:	3
23	28	Q4:	3
24	33	Q2:	0
25	36	Q4:	2
26	39	Q0:	0
27	19	Q3:	0	5
28	25	Q4:	2	17
29	23	Q0:	2
30	36	Q1:	2
31	24	Q2:	1	21
32	17	Q4:	0	19
33	10	Q4:	0
34	35	Q0:	1
35	24	Q1:	1
36	18	Q4:	0
37	27	Q2:	0
38	17	Q2:	2
39	32	Q3:	2	7	4
40	15	Q3:	1
41	15	Q1:	2	15
42	24	Q3:	1	16	10
43	34	Q4:	2
44	25	Q2:	2	11	14
45	9	Q1:	2
46	27	Q3:	3
47	22	Q2:	2	22
48	13	Q2:	3	26
49	28	Q1:	3
50	19	Q1:	1	16
51	20	Q1:	2
52	29	Q3:	3	5
53	19	Q4:	2	32
54	39	Q0:	1	39
55	12	Q4:	3	19
56	25	Q1:	2
57	21	Q3:	1	23
58	34	Q3:	2
59	20	Q2:	2	46
60	35	Q4:	2
61	26	Q1:	2
62	12	Q3:	0	10
63	17	Q4:	3	61
64	30	Q3:	3
65	20	Q3:	1
66	34	Q3:	2	38
67	9	Q2:	1
68	22	Q2:	0	6	51
69	23	Q2:	2	10	31
70	12	Q3:	0	25
71	13	Q4:	2
72	30	Q3:	3	19
73	13	Q2:	2	26
74	29	Q4:	2	8	29
75	20	Q1:	2
76	39	Q4:	2	57
77	29	Q2:	2	72
78	22	Q3:	1
79	18	Q4:	3	22
80	19	Q4:	3	40
81	37	Q4:	1
82	23	Q0:	0
83	28	Q0:	2	35	5	11
84	35	Q3:	2
85	28	Q2:	3	21	44	11
86	39	Q2:	1
87	10	Q2:	3	43	40
88	20	Q1:	2
89	27	Q3:	0
90	19	Q1:	2
91	21	Q3:	0
92	14	Q3:	0
93	22	Q2:	3	65
94	27	Q3:	2
95	39	Q1:	2	48	87
96	32	Q0:	3	92
97	24	Q1:	3	17
98	15	Q1:	1	57	85
99	28	Q0:	3	43	30	38
100	22	Q4:	2	5	89	9
========================================================== 